% demand
num_movements = 28;
loading_factor = [1650, 1150, 1400, 1500, 1600, 1850, 1700, 850, 1600, 1650, 1650, 1900, 1450, 1700, 1350, 1600, 1550, 1550, 1100, 1650, 1800, 1000, 1750, 1250, 1700, 850, 1450, 1500];
pickup_time = [0, 0, 0, 0, 0, 0, 0, 1, 1, 1, 2, 2, 3, 4, 4, 6, 6, 6, 6, 7, 7, 10, 10, 10, 10, 10, 10, 10];
delivery_time = [3, 1, 1, 1, 6, 1, 1, 6, 6, 3, 4, 6, 7, 8, 8, 9, 8, 7, 9, 9, 9, 11, 11, 11, 11, 11, 11, 11];

% transporter definition
total_capacity = 11000;
num_decks = 4;
capacity = [3000, 3000, 1000, 4000];

% ways out of decks
num_ways_out = 2;
paths_out = array3d(decks, ways_out, decks, [
% ways out of deck d1
2, 4, 0, 0, 3, 4, 0, 0, 

% ways out of deck d2
4, 0, 0, 0, 0, 0, 0, 0,	

% ways out of deck d3
4, 0, 0, 0, 0, 0, 0, 0,	

% ways out of deck d4
0, 0, 0, 0,	0, 0, 0, 0,	

]);

